c This is QMaxSAT 2017 based on 14.07
c This is Glucose 3.0
c This is MiniSat 2.2.0
c WARNING: for repeatability, setting FPU to use double precision
c card = mrwto, comp = 0, pmodel = 0, narr = 4, mct = 24, verb = 0
cr firstCPXsol 0 0 0
c top = 81479
c |  Number of variables:    1686295                                          |
c |  Number of clauses:      86445002                                         |
c |  Weight of hard clauses: 81479                                            |
c |  Number of soft clauses: 2208                                             |
c |  Number of unit soft clauses: 2208                                        |
c |  Maximum Cardinality (by unit): 325912       (325912      )               |
c last restart ## conflicts  :  106 184786 
o 1346 | cpuTime 13.1432 s
c Sum of weights = 81478
c A number of soft clauses remained = 552
c MRWTO encoding for Pseudo-Boolean Constraints
c sizeMax=1346
c No.0 Divisor=12	generated by pow1
c No.1 Divisor=12	generated by pow1
c No.2 Divisor=12	generated by pow1
c p0= 12	p1= 12	p2= 12	
c number of digits = 4
c linkingVar[0].size = 12, linkingVar[1].size = 12, linkingVar[2].size = 10, linkingVar[3].size = 1, 
c Pseudo-Boolean Constraints: 12051 variables and 115467 clauses
c Sum of weights = 81478
c A number of soft clauses remained = 552
c MRWTO encoding for Pseudo-Boolean Constraints
c sizeMax=1346
c No.0 Divisor=12	generated by pow1
c No.1 Divisor=12	generated by pow1
c No.2 Divisor=12	generated by pow1
c p0= 12	p1= 12	p2= 12	
c number of digits = 4
c linkingVar[0].size = 12, linkingVar[1].size = 12, linkingVar[2].size = 10, linkingVar[3].size = 1, 
c Pseudo-Boolean Constraints: 12051 variables and 115467 clauses
c Sum of weights = 81478
c A number of soft clauses remained = 552
c MRWTO encoding for Pseudo-Boolean Constraints
c sizeMax=1346
c No.0 Divisor=12	generated by pow1
c No.1 Divisor=12	generated by pow1
c No.2 Divisor=12	generated by pow1
c p0= 12	p1= 12	p2= 12	
c number of digits = 4
c linkingVar[0].size = 12, linkingVar[1].size = 12, linkingVar[2].size = 10, linkingVar[3].size = 1, 
c Pseudo-Boolean Constraints: 12051 variables and 115467 clauses
c Sum of weights = 81478
c A number of soft clauses remained = 552
c MRWTO encoding for Pseudo-Boolean Constraints
c sizeMax=1346
c No.0 Divisor=12	generated by pow1
c No.1 Divisor=12	generated by pow1
c No.2 Divisor=12	generated by pow1
c p0= 12	p1= 12	p2= 12	
c number of digits = 4
c linkingVar[0].size = 12, linkingVar[1].size = 12, linkingVar[2].size = 10, linkingVar[3].size = 1, 
c Pseudo-Boolean Constraints: 12051 variables and 115467 clauses
c last restart ## conflicts  :  344 188451 
o 1292 | cpuTime 32.9281 s
c last restart ## conflicts  :  628 194525 
o 1240 | cpuTime 94.9293 s
c last restart ## conflicts  :  59 192988 
o 1107 | cpuTime 149.665 s
c last restart ## conflicts  :  674 196094 
o 1001 | cpuTime 225.375 s
c last restart ## conflicts  :  402 195769 
o 951 | cpuTime 392.883 s
c last restart ## conflicts  :  726 203530 
o 903 | cpuTime 778.221 s
c last restart ## conflicts  :  331 201121 
o 898 | cpuTime 1156.28 s
c last restart ## conflicts  :  305 201376 
o 863 | cpuTime 1192.06 s
c last restart ## conflicts  :  569 199812 
o 827 | cpuTime 2121.44 s
c last restart ## conflicts  :  410 200105 
o 818 | cpuTime 2553.07 s
c last restart ## conflicts  :  130 206475 
o 807 | cpuTime 3316.91 s
c last restart ## conflicts  :  382 202932 
o 805 | cpuTime 3429.14 s
c last restart ## conflicts  :  1644 202552 
o 803 | cpuTime 3569.69 s
s UNKNOWN
c Search is stopped by a limit (maybe time-limit)
cr positiVarArr: [ | 16@1(1->16) | 215@1(9->23) | 230@1(10->14) | 262@1(11->22) | 297@1(13->9) | 325@1(14->13) | 371@1(16->11) | 394@1(17->10) | 521@1(22->17) | 529@1(23->1) | 588@2(1->12) | 619@2(2->19) | 673@2(5->1) | 740@2(7->20) | 847@2(12->7) | 1013@2(19->5) | 1034@2(20->2) | 1156@3(1->4) | 1201@3(3->1) | 1242@3(4->18) | 1323@3(8->3) | 1568@3(18->8) | 1752@4(1->24) | 1849@4(6->1) | 2085@4(15->21) | 2214@4(21->6) | 2295@4(24->15) | ]
cr the 1-th chain: [ 1->16->11->22->17->10->14->13->9->23->1 ] (#non-depot=9) {#cumul.=10}
cr the 2-th chain: [ 1->12->7->20->2->19->5->1 ] (#non-depot=6) {#cumul.=16}
cr the 3-th chain: [ 1->4->18->8->3->1 ] (#non-depot=4) {#cumul.=20}
cr the 4-th chain: [ 1->24->15->21->6->1 ] (#non-depot=4) {#cumul.=24}
c Latest Answer = 0 by 14 loops
c restarts              : 20122
c conflicts             : 2981179        (829 /sec)
c decisions             : 24509881       (0.00 % random) (6815 /sec)
c propagations          : 19276920875    (5360272 /sec)
c conflict literals     : 399673340      (27.32 % deleted)
c Memory used           : 9341.00 MB
c CPU time              : 3596.26 s
